NAME          
ROWS
 N  OBJ
 L  c1
COLUMNS
    MARKER    'MARKER'                 'INTORG'
    x[1]      c1        155
    x[1]      OBJ       -514
    x[2]      c1        970
    x[2]      OBJ       -728
    x[3]      c1        834
    x[3]      OBJ       -120
    x[4]      c1        199
    x[4]      OBJ       -863
    x[5]      c1        499
    x[5]      OBJ       -101
    x[6]      c1        638
    x[6]      OBJ       -605
    x[7]      c1        583
    x[7]      OBJ       -128
    x[8]      c1        843
    x[8]      OBJ       -480
    x[9]      c1        848
    x[9]      OBJ       -909
    x[10]     c1        704
    x[10]     OBJ       -12
RHS
    rhs       c1        3136
RANGES
BOUNDS
 LO bounds    x[1]      0
 PL bounds    x[1]
 LO bounds    x[2]      0
 PL bounds    x[2]
 LO bounds    x[3]      0
 PL bounds    x[3]
 LO bounds    x[4]      0
 PL bounds    x[4]
 LO bounds    x[5]      0
 PL bounds    x[5]
 LO bounds    x[6]      0
 PL bounds    x[6]
 LO bounds    x[7]      0
 PL bounds    x[7]
 LO bounds    x[8]      0
 PL bounds    x[8]
 LO bounds    x[9]      0
 PL bounds    x[9]
 LO bounds    x[10]     0
 PL bounds    x[10]
ENDATA
